\ENCODING=ISO-8859-1
\Problem name: ilog.cplex

Minimize
 obj1: 105250 x1 + 109225 x2 + 106130 x3 + 93741 x4 + 107243 x5 + 107414 x6
       + 102757 x7 + 91394 x8 + 106398 x9 + 90356 x10 + 100555 x11 + 104157 x12
       + 98067 x13 + 98219 x14 + 95329 x15 + 109549 x16 + 90730 x17 + 90253 x18
       + 104470 x19 + 90094 x20 + 99477 x21 + 104726 x22 + 96050 x23
       + 102677 x24 + 100567 x25 + 98199 x26 + 99302 x27 + 100369 x28
       + 98340 x29 + 103153 x30 + 108567 x31 + 93818 x32 + 107550 x33
       + 105534 x34 + 107385 x35 + 97127 x36 + 96522 x37 + 101900 x38
       + 94529 x39 + 106573 x40 + 109532 x41 + 109629 x42 + 109631 x43
       + 109653 x44 + 90429 x45 + 93055 x46 + 92440 x47 + 96597 x48
       + 103735 x49 + 93395 x50 + 106826 x51 + 106851 x52 + 94358 x53
       + 91011 x54 + 98297 x55 + 108995 x56 + 102496 x57 + 104765 x58
       + 92127 x59 + 104102 x60 + 99818 x61 + 102927 x62 + 105620 x63
       + 107340 x64 + 105201 x65 + 101224 x66 + 98757 x67 + 107241 x68
       + 104870 x69 + 106822 x70 + 104596 x71 + 100559 x72 + 105077 x73
       + 97083 x74 + 90413 x75 + 97103 x76 + 104013 x77 + 92140 x78 + 93236 x79
       + 107738 x80 + 104000 x81 + 93355 x82 + 101016 x83 + 93500 x84
       + 94195 x85 + 102385 x86 + 109934 x87 + 105780 x88 + 108971 x89
       + 94954 x90 + 92189 x91 + 97496 x92 + 109392 x93 + 105219 x94
       + 101129 x95 + 109719 x96 + 103010 x97 + 108936 x98 + 108729 x99
       + 103393 x100 + 90660 x101 + 96634 x102 + 94194 x103 + 91574 x104
       + 108038 x105 + 101640 x106 + 101842 x107 + 94082 x108 + 94520 x109
       + 92003 x110 + 101486 x111 + 103449 x112 + 92053 x113 + 90243 x114
       + 95114 x115 + 98792 x116 + 92858 x117 + 90354 x118 + 99997 x119
       + 92464 x120 + 103341 x121 + 102558 x122 + 103182 x123 + 96067 x124
       + 100088 x125 + 103217 x126 + 104000 x127 + 94203 x128 + 107955 x129
       + 108067 x130 + 104131 x131 + 109610 x132 + 103462 x133 + 90600 x134
       + 95251 x135 + 95576 x136 + 92727 x137 + 105088 x138 + 100873 x139
       + 97305 x140 + 101274 x141 + 103133 x142 + 109935 x143 + 100717 x144
       + 95812 x145 + 98616 x146 + 95520 x147 + 99206 x148 + 91784 x149
       + 96543 x150 + 95661 x151 + 107989 x152 + 94421 x153 + 93513 x154
       + 104882 x155 + 98229 x156 + 95560 x157 + 95339 x158 + 107533 x159
       + 101256 x160 + 103697 x161 + 100824 x162 + 96917 x163 + 106957 x164
       + 100511 x165 + 109774 x166 + 107876 x167 + 109835 x168 + 93552 x169
       + 108041 x170 + 104683 x171 + 101227 x172 + 91802 x173 + 102712 x174
       + 91004 x175 + 106829 x176 + 108542 x177 + 106520 x178 + 104136 x179
       + 104951 x180 + 92798 x181 + 100860 x182 + 94241 x183 + 107091 x184
       + 95621 x185 + 99503 x186 + 99988 x187 + 102444 x188 + 96707 x189
       + 91521 x190 + 97139 x191 + 105682 x192 + 104945 x193 + 96478 x194
       + 103004 x195 + 104556 x196 + 91122 x197 + 99818 x198 + 97178 x199
       + 109642 x200 + 94086 x201 + 106108 x202 + 106349 x203 + 93202 x204
       + 103599 x205 + 106140 x206 + 100400 x207 + 102737 x208 + 107935 x209
       + 109512 x210 + 105634 x211 + 108959 x212 + 91207 x213 + 98202 x214
       + 103130 x215 + 109679 x216 + 97887 x217 + 101250 x218 + 108103 x219
       + 103456 x220 + 90168 x221 + 95795 x222 + 99557 x223 + 109843 x224
       + 107564 x225 + 105537 x226 + 108656 x227 + 106683 x228 + 97531 x229
       + 94117 x230 + 98880 x231 + 99132 x232 + 100945 x233 + 97957 x234
       + 101426 x235 + 109979 x236 + 106866 x237 + 90768 x238 + 105232 x239
       + 106288 x240 + 93517 x241 + 104903 x242 + 106481 x243 + 98584 x244
       + 95013 x245 + 102735 x246 + 100802 x247 + 105195 x248 + 92125 x249
       + 101097 x250 + 94685 x251 + 99824 x252 + 108196 x253 + 91751 x254
       + 98240 x255 + 91506 x256 + 98266 x257 + 107042 x258 + 99951 x259
       + 108225 x260 + 95602 x261 + 100014 x262 + 91014 x263 + 93890 x264
       + 106003 x265 + 107715 x266 + 90426 x267 + 104498 x268 + 91324 x269
       + 91051 x270 + 100235 x271 + 99635 x272 + 104783 x273 + 91484 x274
       + 94312 x275 + 97636 x276 + 92348 x277 + 107365 x278 + 98537 x279
       + 100582 x280 + 96862 x281 + 90844 x282 + 95484 x283 + 98750 x284
       + 94553 x285 + 100075 x286 + 102476 x287 + 93227 x288 + 97204 x289
       + 90822 x290 + 108315 x291 + 90104 x292 + 107463 x293 + 96585 x294
       + 91047 x295 + 99990 x296 + 99678 x297 + 107026 x298 + 96785 x299
       - 2030 x300 + 191813 x301 + 193734 x302 + 207766 x303 + 199914 x304
       + 212051 x305 + 193030 x306 + 194826 x307 + 211727 x308 + 201828 x309
       + 189520 x310 + 219500 x311 + 195449 x312 + 183814 x313 + 194046 x314
       + 180155 x315 + 186284 x316 + 189885 x317 + 212069 x318 + 190695 x319
       + 205796 x320 + 180551 x321 + 184401 x322 + 213538 x323 + 199194 x324
       + 201921 x325 + 197382 x326 + 200668 x327 + 217141 x328 + 183937 x329
       + 213989 x330 + 199769 x331 + 200482 x332 + 208623 x333 + 202101 x334
       + 189381 x335 + 217857 x336 + 195881 x337 + 184641 x338 + 187655 x339
       + 181588 x340 + 206943 x341 + 208487 x342 + 193736 x343 + 206241 x344
       + 191819 x345 + 205093 x346 + 208931 x347 + 197200 x348 + 207174 x349
       + 195423 x350 + 186746 x351 + 203128 x352 + 184819 x353 + 195322 x354
       + 196552 x355 + 216579 x356 + 198563 x357 + 184649 x358 + 195039 x359
       + 302954 x360
Subject To
 c1:   x5 - x11 + x20 - x24 + x56  = 1
 c2:   x65 - x71 + x80 - x84 + x116  = 0
 c3:   x125 - x131 + x140 - x144 + x176  = 0
 c4:   x185 - x191 + x200 - x204 + x236  = 0
 c5:   x245 - x251 + x260 - x264 + x296  = 0
 c6:   - x1 - x5 - x6 + x8 - x16 + x24 - x39 + x47 - x59  = 0
 c7:   - x61 - x65 - x66 + x68 - x76 + x84 - x99 + x107 - x119  = 0
 c8:   - x121 - x125 - x126 + x128 - x136 + x144 - x159 + x167 - x179  = 0
 c9:   - x181 - x185 - x186 + x188 - x196 + x204 - x219 + x227 - x239  = 0
 c10:  - x241 - x245 - x246 + x248 - x256 + x264 - x279 + x287 - x299  = 0
 c11:  x11 + x28 + x34 - x43 - x45 - x52 - x55  = 0
 c12:  x71 + x88 + x94 - x103 - x105 - x112 - x115  = 0
 c13:  x131 + x148 + x154 - x163 - x165 - x172 - x175  = 0
 c14:  x191 + x208 + x214 - x223 - x225 - x232 - x235  = 0
 c15:  x251 + x268 + x274 - x283 - x285 - x292 - x295  = 0
 c16:  x4 + x19 + x25 + x32 + x53  = 0
 c17:  x64 + x79 + x85 + x92 + x113  = 0
 c18:  x124 + x139 + x145 + x152 + x173  = 0
 c19:  x184 + x199 + x205 + x212 + x233  = 0
 c20:  x244 + x259 + x265 + x272 + x293  = 0
 c21:  - x15 + x35 + x50 + x51  = 0
 c22:  - x75 + x95 + x110 + x111  = 0
 c23:  - x135 + x155 + x170 + x171  = 0
 c24:  - x195 + x215 + x230 + x231  = 0
 c25:  - x255 + x275 + x290 + x291  = 0
 c26:  x7 - x12 - x18 - x19 - x26 + x27 - x37 + x39 + x43 + x49  = 0
 c27:  x67 - x72 - x78 - x79 - x86 + x87 - x97 + x99 + x103 + x109  = 0
 c28:  x127 - x132 - x138 - x139 - x146 + x147 - x157 + x159 + x163 + x169  = 1
 c29:  x187 - x192 - x198 - x199 - x206 + x207 - x217 + x219 + x223 + x229  = 0
 c30:  x247 - x252 - x258 - x259 - x266 + x267 - x277 + x279 + x283 + x289  = 0
 c31:  x3 - x7 + x10 + x15 - x22 + x23 - x25 - x48 - x56  = 0
 c32:  x63 - x67 + x70 + x75 - x82 + x83 - x85 - x108 - x116  = -1
 c33:  x123 - x127 + x130 + x135 - x142 + x143 - x145 - x168 - x176  = 0
 c34:  x183 - x187 + x190 + x195 - x202 + x203 - x205 - x228 - x236  = 0
 c35:  x243 - x247 + x250 + x255 - x262 + x263 - x265 - x288 - x296  = 0
 c36:  - x2 - x4 - x10 + x12 + x13 - x14 + x16 + x54  = 0
 c37:  - x62 - x64 - x70 + x72 + x73 - x74 + x76 + x114  = 0
 c38:  - x122 - x124 - x130 + x132 + x133 - x134 + x136 + x174  = -1
 c39:  - x182 - x184 - x190 + x192 + x193 - x194 + x196 + x234  = 0
 c40:  - x242 - x244 - x250 + x252 + x253 - x254 + x256 + x294  = 1
 c41:  - x17 + x30 - x35 - x40 - x54 - x57 + x58 + x60  = 0
 c42:  - x77 + x90 - x95 - x100 - x114 - x117 + x118 + x120  = 0
 c43:  - x137 + x150 - x155 - x160 - x174 - x177 + x178 + x180  = 0
 c44:  - x197 + x210 - x215 - x220 - x234 - x237 + x238 + x240  = -1
 c45:  - x257 + x270 - x275 - x280 - x294 - x297 + x298 + x300  = 0
 c46:  x1 - x23 + x31 - x33 + x41 - x46 - x60  = 0
 c47:  x61 - x83 + x91 - x93 + x101 - x106 - x120  = 0
 c48:  x121 - x143 + x151 - x153 + x161 - x166 - x180  = 0
 c49:  x181 - x203 + x211 - x213 + x221 - x226 - x240  = 1
 c50:  x241 - x263 + x271 - x273 + x281 - x286 - x300  = -1
 c51:  - x3 - x13 + x17 + x18 - x20 - x30 - x34 + x36 - x47 + x55 + x59  = 0
 c52:  - x63 - x73 + x77 + x78 - x80 - x90 - x94 + x96 - x107 + x115 + x119
        = 0
 c53:  - x123 - x133 + x137 + x138 - x140 - x150 - x154 + x156 - x167 + x175
       + x179  = 0
 c54:  - x183 - x193 + x197 + x198 - x200 - x210 - x214 + x216 - x227 + x235
       + x239  = 0
 c55:  - x243 - x253 + x257 + x258 - x260 - x270 - x274 + x276 - x287 + x295
       + x299  = 0
 c56:  - x8 - x9 - x27 - x32 + x37 + x38 - x41 - x44 - x50  = 0
 c57:  - x68 - x69 - x87 - x92 + x97 + x98 - x101 - x104 - x110  = 1
 c58:  - x128 - x129 - x147 - x152 + x157 + x158 - x161 - x164 - x170  = 0
 c59:  - x188 - x189 - x207 - x212 + x217 + x218 - x221 - x224 - x230  = 0
 c60:  - x248 - x249 - x267 - x272 + x277 + x278 - x281 - x284 - x290  = 0
 c61:  x2 + x9 - x21 + x33 + x42 - x53  = -1
 c62:  x62 + x69 - x81 + x93 + x102 - x113  = 0
 c63:  x122 + x129 - x141 + x153 + x162 - x173  = 0
 c64:  x182 + x189 - x201 + x213 + x222 - x233  = 0
 c65:  x242 + x249 - x261 + x273 + x282 - x293  = 0
 c66:  x6 + x14 + x22 - x28 - x29 - x31 - x38 + x44 + x45 + x46 - x49 + x57
        = 0
 c67:  x66 + x74 + x82 - x88 - x89 - x91 - x98 + x104 + x105 + x106 - x109
       + x117  = 0
 c68:  x126 + x134 + x142 - x148 - x149 - x151 - x158 + x164 + x165 + x166
       - x169 + x177  = 0
 c69:  x186 + x194 + x202 - x208 - x209 - x211 - x218 + x224 + x225 + x226
       - x229 + x237  = 0
 c70:  x246 + x254 + x262 - x268 - x269 - x271 - x278 + x284 + x285 + x286
       - x289 + x297  = 0
 c71:  x21 + x26 + x29 - x36 + x40 - x42 + x48 - x51 + x52 - x58  = 0
 c72:  x81 + x86 + x89 - x96 + x100 - x102 + x108 - x111 + x112 - x118  = 0
 c73:  x141 + x146 + x149 - x156 + x160 - x162 + x168 - x171 + x172 - x178  = 0
 c74:  x201 + x206 + x209 - x216 + x220 - x222 + x228 - x231 + x232 - x238  = 0
 c75:  x261 + x266 + x269 - x276 + x280 - x282 + x288 - x291 + x292 - x298  = 0
 c76:  4 x1 + 4 x61 + 4 x121 + 4 x181 + 4 x241 - 9 x301 <= 0
 c77:  4 x2 + 4 x62 + 4 x122 + 4 x182 + 4 x242 - 11 x302 <= 0
 c78:  4 x3 + 4 x63 + 4 x123 + 4 x183 + 4 x243 - 10 x303 <= 0
 c79:  4 x4 + 4 x64 + 4 x124 + 4 x184 + 4 x244 - 10 x304 <= 0
 c80:  4 x5 + 4 x65 + 4 x125 + 4 x185 + 4 x245 - 11 x305 <= 0
 c81:  4 x6 + 4 x66 + 4 x126 + 4 x186 + 4 x246 - 11 x306 <= 0
 c82:  4 x7 + 4 x67 + 4 x127 + 4 x187 + 4 x247 - 11 x307 <= 0
 c83:  4 x8 + 4 x68 + 4 x128 + 4 x188 + 4 x248 - 11 x308 <= 0
 c84:  4 x9 + 4 x69 + 4 x129 + 4 x189 + 4 x249 - 10 x309 <= 0
 c85:  4 x10 + 4 x70 + 4 x130 + 4 x190 + 4 x250 - 10 x310 <= 0
 c86:  4 x11 + 4 x71 + 4 x131 + 4 x191 + 4 x251 - 10 x311 <= 0
 c87:  4 x12 + 4 x72 + 4 x132 + 4 x192 + 4 x252 - 9 x312 <= 0
 c88:  4 x13 + 4 x73 + 4 x133 + 4 x193 + 4 x253 - 11 x313 <= 0
 c89:  4 x14 + 4 x74 + 4 x134 + 4 x194 + 4 x254 - 11 x314 <= 0
 c90:  4 x15 + 4 x75 + 4 x135 + 4 x195 + 4 x255 - 10 x315 <= 0
 c91:  4 x16 + 4 x76 + 4 x136 + 4 x196 + 4 x256 - 10 x316 <= 0
 c92:  4 x17 + 4 x77 + 4 x137 + 4 x197 + 4 x257 - 9 x317 <= 0
 c93:  4 x18 + 4 x78 + 4 x138 + 4 x198 + 4 x258 - 10 x318 <= 0
 c94:  4 x19 + 4 x79 + 4 x139 + 4 x199 + 4 x259 - 10 x319 <= 0
 c95:  4 x20 + 4 x80 + 4 x140 + 4 x200 + 4 x260 - 9 x320 <= 0
 c96:  4 x21 + 4 x81 + 4 x141 + 4 x201 + 4 x261 - 9 x321 <= 0
 c97:  4 x22 + 4 x82 + 4 x142 + 4 x202 + 4 x262 - 9 x322 <= 0
 c98:  4 x23 + 4 x83 + 4 x143 + 4 x203 + 4 x263 - 10 x323 <= 0
 c99:  4 x24 + 4 x84 + 4 x144 + 4 x204 + 4 x264 - 10 x324 <= 0
 c100: 4 x25 + 4 x85 + 4 x145 + 4 x205 + 4 x265 - 9 x325 <= 0
 c101: 4 x26 + 4 x86 + 4 x146 + 4 x206 + 4 x266 - 9 x326 <= 0
 c102: 4 x27 + 4 x87 + 4 x147 + 4 x207 + 4 x267 - 11 x327 <= 0
 c103: 4 x28 + 4 x88 + 4 x148 + 4 x208 + 4 x268 - 10 x328 <= 0
 c104: 4 x29 + 4 x89 + 4 x149 + 4 x209 + 4 x269 - 10 x329 <= 0
 c105: 4 x30 + 4 x90 + 4 x150 + 4 x210 + 4 x270 - 9 x330 <= 0
 c106: 4 x31 + 4 x91 + 4 x151 + 4 x211 + 4 x271 - 9 x331 <= 0
 c107: 4 x32 + 4 x92 + 4 x152 + 4 x212 + 4 x272 - 11 x332 <= 0
 c108: 4 x33 + 4 x93 + 4 x153 + 4 x213 + 4 x273 - 9 x333 <= 0
 c109: 4 x34 + 4 x94 + 4 x154 + 4 x214 + 4 x274 - 10 x334 <= 0
 c110: 4 x35 + 4 x95 + 4 x155 + 4 x215 + 4 x275 - 10 x335 <= 0
 c111: 4 x36 + 4 x96 + 4 x156 + 4 x216 + 4 x276 - 11 x336 <= 0
 c112: 4 x37 + 4 x97 + 4 x157 + 4 x217 + 4 x277 - 10 x337 <= 0
 c113: 4 x38 + 4 x98 + 4 x158 + 4 x218 + 4 x278 - 10 x338 <= 0
 c114: 4 x39 + 4 x99 + 4 x159 + 4 x219 + 4 x279 - 11 x339 <= 0
 c115: 4 x40 + 4 x100 + 4 x160 + 4 x220 + 4 x280 - 10 x340 <= 0
 c116: 4 x41 + 4 x101 + 4 x161 + 4 x221 + 4 x281 - 11 x341 <= 0
 c117: 4 x42 + 4 x102 + 4 x162 + 4 x222 + 4 x282 - 10 x342 <= 0
 c118: 4 x43 + 4 x103 + 4 x163 + 4 x223 + 4 x283 - 11 x343 <= 0
 c119: 4 x44 + 4 x104 + 4 x164 + 4 x224 + 4 x284 - 11 x344 <= 0
 c120: 4 x45 + 4 x105 + 4 x165 + 4 x225 + 4 x285 - 11 x345 <= 0
 c121: 4 x46 + 4 x106 + 4 x166 + 4 x226 + 4 x286 - 10 x346 <= 0
 c122: 4 x47 + 4 x107 + 4 x167 + 4 x227 + 4 x287 - 9 x347 <= 0
 c123: 4 x48 + 4 x108 + 4 x168 + 4 x228 + 4 x288 - 9 x348 <= 0
 c124: 4 x49 + 4 x109 + 4 x169 + 4 x229 + 4 x289 - 10 x349 <= 0
 c125: 4 x50 + 4 x110 + 4 x170 + 4 x230 + 4 x290 - 9 x350 <= 0
 c126: 4 x51 + 4 x111 + 4 x171 + 4 x231 + 4 x291 - 11 x351 <= 0
 c127: 4 x52 + 4 x112 + 4 x172 + 4 x232 + 4 x292 - 10 x352 <= 0
 c128: 4 x53 + 4 x113 + 4 x173 + 4 x233 + 4 x293 - 10 x353 <= 0
 c129: 4 x54 + 4 x114 + 4 x174 + 4 x234 + 4 x294 - 10 x354 <= 0
 c130: 4 x55 + 4 x115 + 4 x175 + 4 x235 + 4 x295 - 10 x355 <= 0
 c131: 4 x56 + 4 x116 + 4 x176 + 4 x236 + 4 x296 - 10 x356 <= 0
 c132: 4 x57 + 4 x117 + 4 x177 + 4 x237 + 4 x297 - 10 x357 <= 0
 c133: 4 x58 + 4 x118 + 4 x178 + 4 x238 + 4 x298 - 9 x358 <= 0
 c134: 4 x59 + 4 x119 + 4 x179 + 4 x239 + 4 x299 - 10 x359 <= 0
 c135: 4 x60 + 4 x120 + 4 x180 + 4 x240 + 4 x300 - 9 x360 <= 0
Bounds
 0 <= x1 <= 1
 0 <= x2 <= 1
 0 <= x3 <= 1
 0 <= x4 <= 1
 0 <= x5 <= 1
 0 <= x6 <= 1
 0 <= x7 <= 1
 0 <= x8 <= 1
 0 <= x9 <= 1
 0 <= x10 <= 1
 0 <= x11 <= 1
 0 <= x12 <= 1
 0 <= x13 <= 1
 0 <= x14 <= 1
 0 <= x15 <= 1
 0 <= x16 <= 1
 0 <= x17 <= 1
 0 <= x18 <= 1
 0 <= x19 <= 1
 0 <= x20 <= 1
 0 <= x21 <= 1
 0 <= x22 <= 1
 0 <= x23 <= 1
 0 <= x24 <= 1
 0 <= x25 <= 1
 0 <= x26 <= 1
 0 <= x27 <= 1
 0 <= x28 <= 1
 0 <= x29 <= 1
 0 <= x30 <= 1
 0 <= x31 <= 1
 0 <= x32 <= 1
 0 <= x33 <= 1
 0 <= x34 <= 1
 0 <= x35 <= 1
 0 <= x36 <= 1
 0 <= x37 <= 1
 0 <= x38 <= 1
 0 <= x39 <= 1
 0 <= x40 <= 1
 0 <= x41 <= 1
 0 <= x42 <= 1
 0 <= x43 <= 1
 0 <= x44 <= 1
 0 <= x45 <= 1
 0 <= x46 <= 1
 0 <= x47 <= 1
 0 <= x48 <= 1
 0 <= x49 <= 1
 0 <= x50 <= 1
 0 <= x51 <= 1
 0 <= x52 <= 1
 0 <= x53 <= 1
 0 <= x54 <= 1
 0 <= x55 <= 1
 0 <= x56 <= 1
 0 <= x57 <= 1
 0 <= x58 <= 1
 0 <= x59 <= 1
 0 <= x60 <= 1
 0 <= x61 <= 1
 0 <= x62 <= 1
 0 <= x63 <= 1
 0 <= x64 <= 1
 0 <= x65 <= 1
 0 <= x66 <= 1
 0 <= x67 <= 1
 0 <= x68 <= 1
 0 <= x69 <= 1
 0 <= x70 <= 1
 0 <= x71 <= 1
 0 <= x72 <= 1
 0 <= x73 <= 1
 0 <= x74 <= 1
 0 <= x75 <= 1
 0 <= x76 <= 1
 0 <= x77 <= 1
 0 <= x78 <= 1
 0 <= x79 <= 1
 0 <= x80 <= 1
 0 <= x81 <= 1
 0 <= x82 <= 1
 0 <= x83 <= 1
 0 <= x84 <= 1
 0 <= x85 <= 1
 0 <= x86 <= 1
 0 <= x87 <= 1
 0 <= x88 <= 1
 0 <= x89 <= 1
 0 <= x90 <= 1
 0 <= x91 <= 1
 0 <= x92 <= 1
 0 <= x93 <= 1
 0 <= x94 <= 1
 0 <= x95 <= 1
 0 <= x96 <= 1
 0 <= x97 <= 1
 0 <= x98 <= 1
 0 <= x99 <= 1
 0 <= x100 <= 1
 0 <= x101 <= 1
 0 <= x102 <= 1
 0 <= x103 <= 1
 0 <= x104 <= 1
 0 <= x105 <= 1
 0 <= x106 <= 1
 0 <= x107 <= 1
 0 <= x108 <= 1
 0 <= x109 <= 1
 0 <= x110 <= 1
 0 <= x111 <= 1
 0 <= x112 <= 1
 0 <= x113 <= 1
 0 <= x114 <= 1
 0 <= x115 <= 1
 0 <= x116 <= 1
 0 <= x117 <= 1
 0 <= x118 <= 1
 0 <= x119 <= 1
 0 <= x120 <= 1
 0 <= x121 <= 1
 0 <= x122 <= 1
 0 <= x123 <= 1
 0 <= x124 <= 1
 0 <= x125 <= 1
 0 <= x126 <= 1
 0 <= x127 <= 1
 0 <= x128 <= 1
 0 <= x129 <= 1
 0 <= x130 <= 1
 0 <= x131 <= 1
 0 <= x132 <= 1
 0 <= x133 <= 1
 0 <= x134 <= 1
 0 <= x135 <= 1
 0 <= x136 <= 1
 0 <= x137 <= 1
 0 <= x138 <= 1
 0 <= x139 <= 1
 0 <= x140 <= 1
 0 <= x141 <= 1
 0 <= x142 <= 1
 0 <= x143 <= 1
 0 <= x144 <= 1
 0 <= x145 <= 1
 0 <= x146 <= 1
 0 <= x147 <= 1
 0 <= x148 <= 1
 0 <= x149 <= 1
 0 <= x150 <= 1
 0 <= x151 <= 1
 0 <= x152 <= 1
 0 <= x153 <= 1
 0 <= x154 <= 1
 0 <= x155 <= 1
 0 <= x156 <= 1
 0 <= x157 <= 1
 0 <= x158 <= 1
 0 <= x159 <= 1
 0 <= x160 <= 1
 0 <= x161 <= 1
 0 <= x162 <= 1
 0 <= x163 <= 1
 0 <= x164 <= 1
 0 <= x165 <= 1
 0 <= x166 <= 1
 0 <= x167 <= 1
 0 <= x168 <= 1
 0 <= x169 <= 1
 0 <= x170 <= 1
 0 <= x171 <= 1
 0 <= x172 <= 1
 0 <= x173 <= 1
 0 <= x174 <= 1
 0 <= x175 <= 1
 0 <= x176 <= 1
 0 <= x177 <= 1
 0 <= x178 <= 1
 0 <= x179 <= 1
 0 <= x180 <= 1
 0 <= x181 <= 1
 0 <= x182 <= 1
 0 <= x183 <= 1
 0 <= x184 <= 1
 0 <= x185 <= 1
 0 <= x186 <= 1
 0 <= x187 <= 1
 0 <= x188 <= 1
 0 <= x189 <= 1
 0 <= x190 <= 1
 0 <= x191 <= 1
 0 <= x192 <= 1
 0 <= x193 <= 1
 0 <= x194 <= 1
 0 <= x195 <= 1
 0 <= x196 <= 1
 0 <= x197 <= 1
 0 <= x198 <= 1
 0 <= x199 <= 1
 0 <= x200 <= 1
 0 <= x201 <= 1
 0 <= x202 <= 1
 0 <= x203 <= 1
 0 <= x204 <= 1
 0 <= x205 <= 1
 0 <= x206 <= 1
 0 <= x207 <= 1
 0 <= x208 <= 1
 0 <= x209 <= 1
 0 <= x210 <= 1
 0 <= x211 <= 1
 0 <= x212 <= 1
 0 <= x213 <= 1
 0 <= x214 <= 1
 0 <= x215 <= 1
 0 <= x216 <= 1
 0 <= x217 <= 1
 0 <= x218 <= 1
 0 <= x219 <= 1
 0 <= x220 <= 1
 0 <= x221 <= 1
 0 <= x222 <= 1
 0 <= x223 <= 1
 0 <= x224 <= 1
 0 <= x225 <= 1
 0 <= x226 <= 1
 0 <= x227 <= 1
 0 <= x228 <= 1
 0 <= x229 <= 1
 0 <= x230 <= 1
 0 <= x231 <= 1
 0 <= x232 <= 1
 0 <= x233 <= 1
 0 <= x234 <= 1
 0 <= x235 <= 1
 0 <= x236 <= 1
 0 <= x237 <= 1
 0 <= x238 <= 1
 0 <= x239 <= 1
 0 <= x240 <= 1
 0 <= x241 <= 1
 0 <= x242 <= 1
 0 <= x243 <= 1
 0 <= x244 <= 1
 0 <= x245 <= 1
 0 <= x246 <= 1
 0 <= x247 <= 1
 0 <= x248 <= 1
 0 <= x249 <= 1
 0 <= x250 <= 1
 0 <= x251 <= 1
 0 <= x252 <= 1
 0 <= x253 <= 1
 0 <= x254 <= 1
 0 <= x255 <= 1
 0 <= x256 <= 1
 0 <= x257 <= 1
 0 <= x258 <= 1
 0 <= x259 <= 1
 0 <= x260 <= 1
 0 <= x261 <= 1
 0 <= x262 <= 1
 0 <= x263 <= 1
 0 <= x264 <= 1
 0 <= x265 <= 1
 0 <= x266 <= 1
 0 <= x267 <= 1
 0 <= x268 <= 1
 0 <= x269 <= 1
 0 <= x270 <= 1
 0 <= x271 <= 1
 0 <= x272 <= 1
 0 <= x273 <= 1
 0 <= x274 <= 1
 0 <= x275 <= 1
 0 <= x276 <= 1
 0 <= x277 <= 1
 0 <= x278 <= 1
 0 <= x279 <= 1
 0 <= x280 <= 1
 0 <= x281 <= 1
 0 <= x282 <= 1
 0 <= x283 <= 1
 0 <= x284 <= 1
 0 <= x285 <= 1
 0 <= x286 <= 1
 0 <= x287 <= 1
 0 <= x288 <= 1
 0 <= x289 <= 1
 0 <= x290 <= 1
 0 <= x291 <= 1
 0 <= x292 <= 1
 0 <= x293 <= 1
 0 <= x294 <= 1
 0 <= x295 <= 1
 0 <= x296 <= 1
 0 <= x297 <= 1
 0 <= x298 <= 1
 0 <= x299 <= 1
 0 <= x300 <= 1
 0 <= x301 <= 1
 0 <= x302 <= 1
 0 <= x303 <= 1
 0 <= x304 <= 1
 0 <= x305 <= 1
 0 <= x306 <= 1
 0 <= x307 <= 1
 0 <= x308 <= 1
 0 <= x309 <= 1
 0 <= x310 <= 1
 0 <= x311 <= 1
 0 <= x312 <= 1
 0 <= x313 <= 1
 0 <= x314 <= 1
 0 <= x315 <= 1
 0 <= x316 <= 1
 0 <= x317 <= 1
 0 <= x318 <= 1
 0 <= x319 <= 1
 0 <= x320 <= 1
 0 <= x321 <= 1
 0 <= x322 <= 1
 0 <= x323 <= 1
 0 <= x324 <= 1
 0 <= x325 <= 1
 0 <= x326 <= 1
 0 <= x327 <= 1
 0 <= x328 <= 1
 0 <= x329 <= 1
 0 <= x330 <= 1
 0 <= x331 <= 1
 0 <= x332 <= 1
 0 <= x333 <= 1
 0 <= x334 <= 1
 0 <= x335 <= 1
 0 <= x336 <= 1
 0 <= x337 <= 1
 0 <= x338 <= 1
 0 <= x339 <= 1
 0 <= x340 <= 1
 0 <= x341 <= 1
 0 <= x342 <= 1
 0 <= x343 <= 1
 0 <= x344 <= 1
 0 <= x345 <= 1
 0 <= x346 <= 1
 0 <= x347 <= 1
 0 <= x348 <= 1
 0 <= x349 <= 1
 0 <= x350 <= 1
 0 <= x351 <= 1
 0 <= x352 <= 1
 0 <= x353 <= 1
 0 <= x354 <= 1
 0 <= x355 <= 1
 0 <= x356 <= 1
 0 <= x357 <= 1
 0 <= x358 <= 1
 0 <= x359 <= 1
 0 <= x360 <= 1
Binaries
 x301  x302  x303  x304  x305  x306  x307  x308  x309  x310  x311  x312  x313 
 x314  x315  x316  x317  x318  x319  x320  x321  x322  x323  x324  x325  x326 
 x327  x328  x329  x330  x331  x332  x333  x334  x335  x336  x337  x338  x339 
 x340  x341  x342  x343  x344  x345  x346  x347  x348  x349  x350  x351  x352 
 x353  x354  x355  x356  x357  x358  x359  x360 
End
